
Gurobi 6.5.2 (win64) logging started 07/24/16 17:31:43


Gurobi 6.5.2 (win64) logging started 07/24/16 17:31:43

Optimize a model with 2564 rows, 746 columns and 6767 nonzeros
Coefficient statistics:
  Matrix range    [6e-08, 1e+03]
  Objective range [1e+00, 1e+00]
  Bounds range    [1e+00, 1e+00]
  RHS range       [6e-06, 3e+03]
Presolve removed 2320 rows and 495 columns
Presolve time: 0.00s
Presolved: 244 rows, 251 columns, 1048 nonzeros
Variable types: 251 continuous, 0 integer (0 binary)

Root relaxation: objective 2.164136e+01, 249 iterations, 0.00 seconds

    Nodes    |    Current Node    |     Objective Bounds      |     Work
 Expl Unexpl |  Obj  Depth IntInf | Incumbent    BestBd   Gap | It/Node Time

*    0     0               0      21.6413600   21.64136  0.00%     -    0s

Explored 0 nodes (249 simplex iterations) in 0.00 seconds
Thread count was 8 (of 8 available processors)

Optimal solution found (tolerance 1.00e-04)
Best objective 2.164135996185e+01, best bound 2.164135996185e+01, gap 0.0%

Wrote requested result file 'H1\instance15\\Results15EC_Sol5.lp'

